870974
46,28,34,71,90,59,24,43,52,65,54,98,23,11,16,58,82,67,27,2,64,5,3,97,42,35,61,15,83,87,76,38,88,50,36,99,68,80,37,48,1,70,74,32,13,63,60,31,62,49,93,72,55,44,91,8,89,85,53,6,75,69,41,18,56,10,77,30,96,21,20,9,33,57,47,95,66,7,4,45,86,81,14,39,92,84,22,73,25,78,51,79,29,40,94,26,17,12,19